p cnf 386 460
-16 -4 -12 21 22 0
-16 -4 -12 21 -22 0
-16 -4 -12 -21 23 0
-16 -4 -12 -21 -23 0
-6 -4 -2 24 25 0
-6 -4 -2 24 -25 0
-6 -4 -2 -24 26 0
-6 -4 -2 -24 -26 0
-7 -2 -11 27 28 0
-7 -2 -11 27 -28 0
-7 -2 -11 -27 29 0
-7 -2 -11 -27 -29 0
-8 2 -18 30 31 0
-8 2 -18 30 -31 0
-8 2 -18 -30 32 0
-8 2 -18 -30 -32 0
16 -1 14 33 34 0
16 -1 14 33 -34 0
16 -1 14 -33 35 0
16 -1 14 -33 -35 0
12 7 11 36 37 0
12 7 11 36 -37 0
12 7 11 -36 38 0
12 7 11 -36 -38 0
1 -13 7 39 40 0
1 -13 7 39 -40 0
1 -13 7 -39 41 0
1 -13 7 -39 -41 0
16 18 -6 42 43 0
16 18 -6 42 -43 0
16 18 -6 -42 44 0
16 18 -6 -42 -44 0
7 -16 1 45 46 0
7 -16 1 45 -46 0
7 -16 1 -45 47 0
7 -16 1 -45 -47 0
16 -11 -5 48 49 0
16 -11 -5 48 -49 0
16 -11 -5 -48 50 0
16 -11 -5 -48 -50 0
17 7 2 51 52 0
17 7 2 51 -52 0
17 7 2 -51 53 0
17 7 2 -51 -53 0
-12 -11 -1 54 55 0
-12 -11 -1 54 -55 0
-12 -11 -1 -54 56 0
-12 -11 -1 -54 -56 0
2 -10 -9 57 58 0
2 -10 -9 57 -58 0
2 -10 -9 -57 59 0
2 -10 -9 -57 -59 0
7 2 14 60 61 0
7 2 14 60 -61 0
7 2 14 -60 62 0
7 2 14 -60 -62 0
-10 1 -20 63 64 0
-10 1 -20 63 -64 0
-10 1 -20 -63 65 0
-10 1 -20 -63 -65 0
-9 -7 -1 66 67 0
-9 -7 -1 66 -67 0
-9 -7 -1 -66 68 0
-9 -7 -1 -66 -68 0
-19 6 -2 69 70 0
-19 6 -2 69 -70 0
-19 6 -2 -69 71 0
-19 6 -2 -69 -71 0
-10 -5 -4 72 73 0
-10 -5 -4 72 -73 0
-10 -5 -4 -72 74 0
-10 -5 -4 -72 -74 0
17 18 2 75 76 0
17 18 2 75 -76 0
17 18 2 -75 77 0
17 18 2 -75 -77 0
-19 14 -8 78 79 0
-19 14 -8 78 -79 0
-19 14 -8 -78 80 0
-19 14 -8 -78 -80 0
-12 17 -4 81 82 0
-12 17 -4 81 -82 0
-12 17 -4 -81 83 0
-12 17 -4 -81 -83 0
4 5 3 84 85 0
4 5 3 84 -85 0
4 5 3 -84 86 0
4 5 3 -84 -86 0
20 -13 11 87 88 0
20 -13 11 87 -88 0
20 -13 11 -87 89 0
20 -13 11 -87 -89 0
3 -8 1 90 91 0
3 -8 1 90 -91 0
3 -8 1 -90 92 0
3 -8 1 -90 -92 0
-11 -16 19 93 94 0
-11 -16 19 93 -94 0
-11 -16 19 -93 95 0
-11 -16 19 -93 -95 0
-16 -6 3 96 97 0
-16 -6 3 96 -97 0
-16 -6 3 -96 98 0
-16 -6 3 -96 -98 0
18 1 -15 99 100 0
18 1 -15 99 -100 0
18 1 -15 -99 101 0
18 1 -15 -99 -101 0
-7 5 10 102 103 0
-7 5 10 102 -103 0
-7 5 10 -102 104 0
-7 5 10 -102 -104 0
-20 -10 8 105 106 0
-20 -10 8 105 -106 0
-20 -10 8 -105 107 0
-20 -10 8 -105 -107 0
4 -1 2 108 109 0
4 -1 2 108 -109 0
4 -1 2 -108 110 0
4 -1 2 -108 -110 0
-18 -19 -11 111 112 0
-18 -19 -11 111 -112 0
-18 -19 -11 -111 113 0
-18 -19 -11 -111 -113 0
-16 17 -14 114 115 0
-16 17 -14 114 -115 0
-16 17 -14 -114 116 0
-16 17 -14 -114 -116 0
-3 -6 1 117 118 0
-3 -6 1 117 -118 0
-3 -6 1 -117 119 0
-3 -6 1 -117 -119 0
-20 -3 -9 120 121 0
-20 -3 -9 120 -121 0
-20 -3 -9 -120 122 0
-20 -3 -9 -120 -122 0
3 19 14 123 124 0
3 19 14 123 -124 0
3 19 14 -123 125 0
3 19 14 -123 -125 0
12 -19 6 126 127 0
12 -19 6 126 -127 0
12 -19 6 -126 128 0
12 -19 6 -126 -128 0
-2 12 19 129 130 0
-2 12 19 129 -130 0
-2 12 19 -129 131 0
-2 12 19 -129 -131 0
6 -11 -7 132 133 0
6 -11 -7 132 -133 0
6 -11 -7 -132 134 0
6 -11 -7 -132 -134 0
-6 11 -2 135 136 0
-6 11 -2 135 -136 0
-6 11 -2 -135 137 0
-6 11 -2 -135 -137 0
8 -12 -16 138 139 0
8 -12 -16 138 -139 0
8 -12 -16 -138 140 0
8 -12 -16 -138 -140 0
-9 8 -15 141 142 0
-9 8 -15 141 -142 0
-9 8 -15 -141 143 0
-9 8 -15 -141 -143 0
-16 12 -3 144 145 0
-16 12 -3 144 -145 0
-16 12 -3 -144 146 0
-16 12 -3 -144 -146 0
15 -11 -2 147 148 0
15 -11 -2 147 -148 0
15 -11 -2 -147 149 0
15 -11 -2 -147 -149 0
-1 -3 -2 150 151 0
-1 -3 -2 150 -151 0
-1 -3 -2 -150 152 0
-1 -3 -2 -150 -152 0
-4 14 -5 153 154 0
-4 14 -5 153 -154 0
-4 14 -5 -153 155 0
-4 14 -5 -153 -155 0
-7 4 17 156 157 0
-7 4 17 156 -157 0
-7 4 17 -156 158 0
-7 4 17 -156 -158 0
17 -18 14 159 160 0
17 -18 14 159 -160 0
17 -18 14 -159 161 0
17 -18 14 -159 -161 0
10 -14 1 162 163 0
10 -14 1 162 -163 0
10 -14 1 -162 164 0
10 -14 1 -162 -164 0
-5 -16 19 165 166 0
-5 -16 19 165 -166 0
-5 -16 19 -165 167 0
-5 -16 19 -165 -167 0
-20 8 19 168 169 0
-20 8 19 168 -169 0
-20 8 19 -168 170 0
-20 8 19 -168 -170 0
-20 8 2 171 172 0
-20 8 2 171 -172 0
-20 8 2 -171 173 0
-20 8 2 -171 -173 0
-11 -7 3 174 175 0
-11 -7 3 174 -175 0
-11 -7 3 -174 176 0
-11 -7 3 -174 -176 0
8 13 -9 177 178 0
8 13 -9 177 -178 0
8 13 -9 -177 179 0
8 13 -9 -177 -179 0
-2 -9 10 180 181 0
-2 -9 10 180 -181 0
-2 -9 10 -180 182 0
-2 -9 10 -180 -182 0
-3 -19 -8 183 184 0
-3 -19 -8 183 -184 0
-3 -19 -8 -183 185 0
-3 -19 -8 -183 -185 0
-19 -7 14 186 187 0
-19 -7 14 186 -187 0
-19 -7 14 -186 188 0
-19 -7 14 -186 -188 0
4 3 -6 189 190 0
4 3 -6 189 -190 0
4 3 -6 -189 191 0
4 3 -6 -189 -191 0
-9 -14 20 192 193 0
-9 -14 20 192 -193 0
-9 -14 20 -192 194 0
-9 -14 20 -192 -194 0
12 -2 19 195 196 0
12 -2 19 195 -196 0
12 -2 19 -195 197 0
12 -2 19 -195 -197 0
-10 -20 9 198 199 0
-10 -20 9 198 -199 0
-10 -20 9 -198 200 0
-10 -20 9 -198 -200 0
9 18 -15 201 202 0
9 18 -15 201 -202 0
9 18 -15 -201 203 0
9 18 -15 -201 -203 0
-6 -14 12 204 205 0
-6 -14 12 204 -205 0
-6 -14 12 -204 206 0
-6 -14 12 -204 -206 0
4 -9 -2 207 208 0
4 -9 -2 207 -208 0
4 -9 -2 -207 209 0
4 -9 -2 -207 -209 0
11 13 14 210 211 0
11 13 14 210 -211 0
11 13 14 -210 212 0
11 13 14 -210 -212 0
7 -11 20 213 214 0
7 -11 20 213 -214 0
7 -11 20 -213 215 0
7 -11 20 -213 -215 0
-3 14 -12 216 217 0
-3 14 -12 216 -217 0
-3 14 -12 -216 218 0
-3 14 -12 -216 -218 0
7 -17 -9 219 220 0
7 -17 -9 219 -220 0
7 -17 -9 -219 221 0
7 -17 -9 -219 -221 0
5 1 17 222 223 0
5 1 17 222 -223 0
5 1 17 -222 224 0
5 1 17 -222 -224 0
-20 1 2 225 226 0
-20 1 2 225 -226 0
-20 1 2 -225 227 0
-20 1 2 -225 -227 0
-16 15 20 228 229 0
-16 15 20 228 -229 0
-16 15 20 -228 230 0
-16 15 20 -228 -230 0
-7 16 10 231 232 0
-7 16 10 231 -232 0
-7 16 10 -231 233 0
-7 16 10 -231 -233 0
-1 3 -19 234 235 0
-1 3 -19 234 -235 0
-1 3 -19 -234 236 0
-1 3 -19 -234 -236 0
-9 -15 10 237 238 0
-9 -15 10 237 -238 0
-9 -15 10 -237 239 0
-9 -15 10 -237 -239 0
1 7 -17 240 241 0
1 7 -17 240 -241 0
1 7 -17 -240 242 0
1 7 -17 -240 -242 0
19 -11 -13 243 244 0
19 -11 -13 243 -244 0
19 -11 -13 -243 245 0
19 -11 -13 -243 -245 0
18 -9 -10 246 247 0
18 -9 -10 246 -247 0
18 -9 -10 -246 248 0
18 -9 -10 -246 -248 0
-13 -14 -4 249 250 0
-13 -14 -4 249 -250 0
-13 -14 -4 -249 251 0
-13 -14 -4 -249 -251 0
14 -3 -11 252 253 0
14 -3 -11 252 -253 0
14 -3 -11 -252 254 0
14 -3 -11 -252 -254 0
-15 -9 -17 255 256 0
-15 -9 -17 255 -256 0
-15 -9 -17 -255 257 0
-15 -9 -17 -255 -257 0
11 6 -18 258 259 0
11 6 -18 258 -259 0
11 6 -18 -258 260 0
11 6 -18 -258 -260 0
12 13 -5 261 262 0
12 13 -5 261 -262 0
12 13 -5 -261 263 0
12 13 -5 -261 -263 0
-15 -2 -19 264 265 0
-15 -2 -19 264 -265 0
-15 -2 -19 -264 266 0
-15 -2 -19 -264 -266 0
-9 17 -2 267 268 0
-9 17 -2 267 -268 0
-9 17 -2 -267 269 0
-9 17 -2 -267 -269 0
10 -17 7 270 271 0
10 -17 7 270 -271 0
10 -17 7 -270 272 0
10 -17 7 -270 -272 0
-1 7 6 273 274 0
-1 7 6 273 -274 0
-1 7 6 -273 275 0
-1 7 6 -273 -275 0
-13 2 3 276 277 0
-13 2 3 276 -277 0
-13 2 3 -276 278 0
-13 2 3 -276 -278 0
-13 -18 11 279 280 0
-13 -18 11 279 -280 0
-13 -18 11 -279 281 0
-13 -18 11 -279 -281 0
3 -20 2 282 283 0
3 -20 2 282 -283 0
3 -20 2 -282 284 0
3 -20 2 -282 -284 0
16 -5 7 285 286 0
16 -5 7 285 -286 0
16 -5 7 -285 287 0
16 -5 7 -285 -287 0
2 -13 -9 288 289 0
2 -13 -9 288 -289 0
2 -13 -9 -288 290 0
2 -13 -9 -288 -290 0
-18 4 19 291 292 0
-18 4 19 291 -292 0
-18 4 19 -291 293 0
-18 4 19 -291 -293 0
294 295 297 301 309 0
294 295 297 301 -309 0
294 295 297 -301 310 0
294 295 297 -301 -310 0
294 295 -297 302 311 0
294 295 -297 302 -311 0
294 295 -297 -302 312 0
294 295 -297 -302 -312 0
294 -295 298 303 313 0
294 -295 298 303 -313 0
294 -295 298 -303 314 0
294 -295 298 -303 -314 0
294 -295 -298 304 315 0
294 -295 -298 304 -315 0
294 -295 -298 -304 316 0
294 -295 -298 -304 -316 0
-294 296 299 305 317 0
-294 296 299 305 -317 0
-294 296 299 -305 318 0
-294 296 299 -305 -318 0
-294 296 -299 306 319 0
-294 296 -299 306 -319 0
-294 296 -299 -306 320 0
-294 296 -299 -306 -320 0
-294 -296 300 307 321 0
-294 -296 300 307 -321 0
-294 -296 300 -307 322 0
-294 -296 300 -307 -322 0
-294 -296 -300 308 323 0
-294 -296 -300 308 -323 0
-294 -296 -300 -308 324 0
-294 -296 -300 -308 -324 0
325 326 328 332 340 0
325 326 328 332 -340 0
325 326 328 -332 341 0
325 326 328 -332 -341 0
325 326 -328 333 342 0
325 326 -328 333 -342 0
325 326 -328 -333 343 0
325 326 -328 -333 -343 0
325 -326 329 334 344 0
325 -326 329 334 -344 0
325 -326 329 -334 345 0
325 -326 329 -334 -345 0
325 -326 -329 335 346 0
325 -326 -329 335 -346 0
325 -326 -329 -335 347 0
325 -326 -329 -335 -347 0
-325 327 330 336 348 0
-325 327 330 336 -348 0
-325 327 330 -336 349 0
-325 327 330 -336 -349 0
-325 327 -330 337 350 0
-325 327 -330 337 -350 0
-325 327 -330 -337 351 0
-325 327 -330 -337 -351 0
-325 -327 331 338 352 0
-325 -327 331 338 -352 0
-325 -327 331 -338 353 0
-325 -327 331 -338 -353 0
-325 -327 -331 339 354 0
-325 -327 -331 339 -354 0
-325 -327 -331 -339 355 0
-325 -327 -331 -339 -355 0
356 357 359 363 371 0
356 357 359 363 -371 0
356 357 359 -363 372 0
356 357 359 -363 -372 0
356 357 -359 364 373 0
356 357 -359 364 -373 0
356 357 -359 -364 374 0
356 357 -359 -364 -374 0
356 -357 360 365 375 0
356 -357 360 365 -375 0
356 -357 360 -365 376 0
356 -357 360 -365 -376 0
356 -357 -360 366 377 0
356 -357 -360 366 -377 0
356 -357 -360 -366 378 0
356 -357 -360 -366 -378 0
-356 358 361 367 379 0
-356 358 361 367 -379 0
-356 358 361 -367 380 0
-356 358 361 -367 -380 0
-356 358 -361 368 381 0
-356 358 -361 368 -381 0
-356 358 -361 -368 382 0
-356 358 -361 -368 -382 0
-356 -358 362 369 383 0
-356 -358 362 369 -383 0
-356 -358 362 -369 384 0
-356 -358 362 -369 -384 0
-356 -358 -362 370 385 0
-356 -358 -362 370 -385 0
-356 -358 -362 -370 386 0
-356 -358 -362 -370 -386 0

